c read Graph
c width = 185
c time = 499 ms
c width = 15
c time = 690 ms
c width = 14
c time = 896 ms
c width = 13
c time = 1124 ms
c width = 12
c time = 3727 ms
c width = 12
c time = 3965 ms
s td 179 13 198
b 1 1 2 19
b 2 2 3 19 20
b 3 16 17 35 36
b 4 3 19 20 37
b 5 16 35 36 54
b 6 145 163 164 182
b 7 162 179 180 197
b 8 145 164 182 183
b 9 162 179 196 197
b 10 3 4 5 22
b 11 3 5 21 22 38 55
b 12 5 21 22 38 40 55 57
b 13 5 22 38 40 55 57 74
b 14 5 22 40 55 57 74 91
b 15 5 22 24 40 41 57 74 91
b 16 5 24 40 41 57 59 74 76 91
b 17 40 57 58 59 76
b 18 5 24 41 57 59 74 76 91 93
b 19 57 74 75 76 93
b 20 5 24 41 59 74 76 91 93 110
b 21 5 24 41 59 76 91 93 110 112 131 150 167 186
b 22 5 24 41 59 76 93 95 112 131 150 167 186
b 23 76 93 94 95 112
b 24 5 24 41 59 76 95 112 114 131 150 167 186
b 25 5 24 41 59 76 78 95 114 131 150 167 186
b 26 59 76 77 78 95
b 27 5 24 41 59 78 95 97 114 131 150 167 186
b 28 5 24 41 59 60 78 97 114 131 150 167 186
b 29 5 24 41 60 78 79 97 114 131 150 167 186
b 30 5 24 41 60 79 97 114 131 133 150 167 186
b 31 114 131 132 133 150
b 32 5 24 41 60 79 97 114 116 133 150 167 186
b 33 97 114 115 116 133
b 34 5 24 41 43 60 79 97 116 133 150 167 186
b 35 24 41 42 43 60
b 36 5 24 43 60 62 79 97 116 133 150 167 186
b 37 43 60 61 62 79
b 38 5 24 43 62 79 97 116 133 150 167 169 186
b 39 5 24 43 62 79 97 116 133 150 152 169 186
b 40 133 150 151 152 169
b 41 5 24 43 62 79 97 116 133 152 169 186 188
b 42 169 186 187 188
b 43 5 24 43 62 79 97 116 133 152 169 171 188
b 44 5 24 43 62 79 97 116 133 152 171 188 190
b 45 171 188 189 190
b 46 5 24 43 62 79 80 97 116 133 152 171 190
b 47 5 24 43 62 80 97 98 116 133 152 171 190
b 48 5 24 43 62 80 81 98 116 133 152 171 190
b 49 5 24 43 62 81 98 116 133 134 152 171 190
b 50 5 24 43 62 81 98 116 117 134 152 171 190
b 51 5 24 43 62 81 98 100 117 134 152 171 190
b 52 5 24 43 62 81 100 117 134 135 152 171 190
b 53 5 24 43 62 81 100 117 135 152 154 171 190
b 54 5 24 43 62 81 100 117 135 136 154 171 190
b 55 5 24 43 62 81 100 117 119 136 154 171 190
b 56 5 24 43 62 81 100 119 136 154 171 173 190
b 57 5 24 43 62 81 100 119 136 154 155 173 190
b 58 5 24 43 62 81 100 119 136 138 155 173 190
b 59 119 136 137 138 155
b 60 5 9 24 26 43 62 81 100 119 138 155 173 190
b 61 9 26 43 44 62 81 100 119 138 155 173 190
b 62 9 26 28 44 45 62 81 100 119 138 155 173 190
b 63 9 28 45 62 81 100 119 138 155 157 173 174 190
b 64 9 28 45 62 81 100 119 138 157 173 174 190 192
b 65 9 28 45 62 81 100 119 138 157 174 176 192 194
b 66 9 28 45 62 64 81 100 119 138 157 176 194
b 67 45 62 63 64 81
b 68 9 28 45 47 64 81 100 119 138 157 176 194
b 69 9 28 47 64 81 83 100 119 138 157 176 194
b 70 64 81 82 83 100
b 71 9 28 47 64 66 83 100 119 138 157 176 194
b 72 47 64 65 66 83
b 73 9 28 47 66 83 100 102 119 138 157 176 194
b 74 83 100 101 102 119
b 75 9 28 47 66 83 85 102 119 138 157 176 194
b 76 66 83 84 85 102
b 77 9 28 47 66 85 102 119 121 138 157 176 194
b 78 102 119 120 121 138
b 79 9 28 47 66 85 102 121 138 140 157 176 194
b 80 121 138 139 140 157
b 81 9 28 47 66 85 102 104 121 140 157 176 194
b 82 85 102 103 104 121
b 83 9 28 47 66 85 104 121 123 140 157 176 194
b 84 104 121 122 123 140
b 85 28 45 46 47 64
b 86 157 174 175 176 192 194
b 87 175 192 193 194
b 88 173 190 191 192
b 89 138 155 156 157 174
b 90 9 26 27 28 45
b 91 5 7 9 24 26 43
b 92 7 24 25 26 43
b 93 7 8 9 26
b 94 5 6 7 24
b 95 154 171 172 173 190
b 96 100 117 118 119 136
b 97 135 152 153 154 171
b 98 81 98 99 100 117
b 99 152 169 170 171 188
b 100 150 167 168 169 186
b 101 78 95 96 97 114
b 102 95 112 113 114 131
b 103 91 93 110 112 131 148 150 167 186
b 104 131 148 149 150 167
b 105 91 93 110 112 129 131 148 167 186
b 106 93 110 111 112 129
b 107 91 110 129 148 167 184 186
b 108 167 184 185 186
b 109 91 110 127 129 148 167 184
b 110 91 109 110 127
b 111 110 127 129 148 165 167 184
b 112 148 165 166 167 184
b 113 110 127 129 146 148 165 184
b 114 129 146 147 148 165
b 115 127 146 165 183 184
b 116 127 145 146 165 183
b 117 145 146 164 165 183
b 118 110 127 128 129 146
b 119 112 129 130 131 148
b 120 74 91 92 93 110
b 121 5 22 23 24 41
b 122 55 73 74 91
b 123 38 55 56 57 74
b 124 21 38 39 40 57
b 125 3 21 37 38 55
b 126 3 20 21 37 38
b 127 9 28 47 66 85 87 104 106 108 123 125
b 128 140 157 158 159 176
b 129 9 28 47 66 85 104 106 108 123 125 142
b 130 9 28 47 66 85 104 123 140 157 159 176 194
b 131 9 28 47 66 85 104 123 140 142 159 176 194
b 132 9 28 47 66 85 104 108 123 125 142 159 176 194
b 133 108 125 142 159 176 178 194 196
b 134 106 123 124 125 142
b 135 87 104 105 106 123
b 136 9 28 47 66 68 85 87 104 106 108 125
b 137 9 28 47 49 66 68 85 87 106 108 125
b 138 49 66 67 68 85
b 139 9 13 28 32 47 49 66 68 87 106 108 125
b 140 9 13 28 30 32 47 49 66
b 141 30 47 48 49 66
b 142 9 11 13 28 30 47
b 143 9 10 11 28
b 144 11 28 29 30 47
b 145 11 12 13 30
b 146 13 30 31 32 49
b 147 13 32 49 68 87 89 106 108 125
b 148 89 106 107 108 125
b 149 13 32 49 68 70 87 89 106 108
b 150 70 87 88 89 106
b 151 13 32 49 51 68 70 87 89 108
b 152 51 68 69 70 87
b 153 32 49 50 51 68
b 154 13 32 51 70 72 89 108
b 155 72 89 90 108
b 156 13 15 32 51 70 72 89
b 157 15 32 51 53 70 72 89
b 158 53 70 71 72 89
b 159 15 32 34 51 53 70 72
b 160 34 51 52 53 70
b 161 15 32 33 34 51
b 162 15 34 53 54 72
b 163 15 16 34 53 54
b 164 16 34 35 53 54
b 165 13 14 15 32
b 166 68 85 86 87 104
b 167 123 140 141 142 159
b 168 159 176 177 178 194 196
b 169 177 194 195 196
b 170 108 125 142 144 159 178 196
b 171 108 125 126 144
b 172 125 142 144 159 161 178 196
b 173 144 161 162 178 196
b 174 161 162 178 179 196
b 175 125 142 143 144 161
b 176 142 159 160 161 178
b 177 180 197 198
b 178 163 181 182
b 179 17 18 36
1 2
2 4
3 179
3 5
4 126
5 164
6 178
6 8
7 177
7 9
8 117
9 174
10 11
11 125
11 12
12 124
12 13
13 123
13 14
14 122
14 15
15 121
15 16
16 18
16 17
18 20
18 19
20 120
20 21
21 103
21 22
22 24
22 23
24 102
24 25
25 27
25 26
27 101
27 28
28 29
29 30
30 32
30 31
32 34
32 33
34 36
34 35
36 38
36 37
38 100
38 39
39 41
39 40
41 43
41 42
43 99
43 44
44 46
44 45
46 47
47 48
48 49
49 50
50 51
51 98
51 52
52 53
53 97
53 54
54 55
55 96
55 56
56 95
56 57
57 58
58 60
58 59
60 91
60 61
61 62
62 90
62 63
63 89
63 64
64 88
64 65
65 66
65 86
66 67
66 68
68 85
68 69
69 70
69 71
71 73
71 72
73 74
73 75
75 76
75 77
77 79
77 78
79 81
79 80
81 83
81 82
83 130
83 84
86 87
91 94
91 93
91 92
103 105
103 104
105 119
105 107
105 106
107 109
107 108
109 110
109 111
111 112
111 113
113 115
113 118
113 114
115 116
116 117
125 126
127 135
127 136
127 129
128 130
129 134
129 132
130 131
131 167
131 132
132 133
133 168
133 170
136 137
136 166
137 138
137 139
139 140
139 147
140 146
140 141
140 142
142 143
142 145
142 144
147 148
147 149
149 150
149 151
151 153
151 152
151 154
154 155
154 156
156 165
156 157
157 158
157 159
159 162
159 161
159 160
162 163
163 164
168 169
170 171
170 172
172 173
172 175
172 176
173 174
